x04m01e2t16tp2
3370
3480
3480
3480
3480
3480
3551
3551
3551
3646
3676
3676
3699
3789
3789
3789
3789
3789
3789
3873
3873
3873
3873
3873
3873
3873
3873
3873
3873
3873
3873
3873
3873
3873
3873
3873
3873
3873
3922
3922
3922
3922
3922
3922
3922
3922
3922
3922
3922
3922
3927
3927
3943
3943
3943
3943
3943
3999
3999
3999
3999
3999
3999
3999
3999
3999
4025
4025
4025
4025
4025
4025
4025
4025
4025
4025
4025
4025
4025
4025
4025
4025
4025
4025
4025
4025
4025
4025
4025
4068
4068
4068
4068
4068
4068
4068
4068
4068
4068
4068
4068
4068
4068
4068
4068
4068
4068
4068
4068
4068
4068
4068
4068
4068
4068
4068
4068
4068
4068
4068
4068
4068
4068
4068
4068
4068
4068
4068
4068
4068
4068
4068
4068
4068
4068
4068
4068
4068
4068
4068
4068
4068
4068
4068
4068
4068
4068
4068
4068
4068
4068
4068
4068
4068
4068
4068
4068
4068
4068
4068
4068
4068
4068
4068
4068
4068
4068
4068
4068
4068
4068
4068
4068
4068
4068
4068
4068
4068
4068
4068
4068
4068
4068
4068
4068
4068
4068
4068
4068
4068
4068
4068
4068
4068
4068
4068
4068
4068
4068
4068
4068
4068
4068
4068
4068
4068
4068
4068
4068
4068
4068
4068
4068
4068
4068
4068
4068
4068
4068
4068
4068
4068
4068
4068
4068
4068
4068
4068
4068
4068
4068
4068
4068
4068
4068
4068
4068
4068
4068
4068
4068
4068
4068
4068
4068
4068
4068
4068
4068
4068
4068
4068
4068
4068
4068
4068
4068
4068
4068
4068
4068
4068
4068
4068
4068
4068
4068
4068
4068
4068
4068
4068
4068
4068
4068
4068
4068
4068
4068
4068
4068
4068
4068
4068
4068
4068
4068
4068
4068
4068
4068
4068
4068
4068
4068
4068
4068
4068
4068
4068
4068
4068
4068
4068
4068
4068
4068
4068
4068
4068
4068
4068
4068
4068
4068
4068
4068
4068
4068
4068
4068
4068
4068
4068
4068
4068
4068
4068
4068
4068
4068
4068
4068
4068
4068
4068
4068
4068
4068
4068
4068
4068
4068
4068
4068
4068
4068
4068
4068
4068
4068
4068
4068
4068
4068
4068
4068
4068
4068
4068
4068
4068
4068
4068
4068
4068
4068
4068
4068
4068
4068
4068
4068
4068
4068
4068
4068
4068
4068
4068
4068
4068
4068
4068
4068
4068
4068
4068
4068
4068
4068
4068
4068
4068
4068
4068
4068
4068
4068
4068
4068
4068
4068
4068
4068
4068
4068
4068
4068
4068
4068
4068
4068
4068
4068
4068
4068
4068
4068
4068
4068
4068
4068
4068
4068
4068
4068
4068
4068
4068
4068
4068
4068
4068
4068
4068
4068
4068
4068
4068
4068
4068
4068
4068
4068
4068
4068
4068
4068
4068
4068
4068
4068
4068
4068
4068
4068
4068
4068
4068
4068
4068
4068
4068
4068
4068
4068
4068
4068
4068
4068
4068
4068
4068
4068
4068
4068
4068
4068
4068
4068
4068
4068
4068
4068
4068
4068
4068
4068
4068
4068
4068
4068
4068
4068
4068
4068
4068
4068
4068
4068
4068
4068
4068
4068
4068
4068
4068
4068
4068
4068
4068
4068
4068
4068
4068
4068
4068
4068
4068
4068
4068
4068
4068
4068
4068
4068
4068
4068
4068
4068
4068
4068
4068
4068
4068
4068
4068
4068
4068
4068
4068
4068
4068
4068
4068
4068
4068
4068
4068
4068
4068
4068
4068
4068
4068
4068
4068
4068
4068
4068
4068
4068
4068
4068
4068
4068
4068
4068
4068
4068
4068
4068
4068
4068
4068
4068
4068
4068
4068
4068
4068
4068
4068
4068
4068
4068
4068
4068
4068
4068
4068
4068
4068
4068
4068
4068
4068
4068
4068
4068
4068
4068
4068
4068
4068
4068
4068
4068
4068
4068
4068
4068
4068
4068
4068
4068
4068
4068
4068
4068
4068
4068
4068
4068
4068
4068
4068
4068
4068
4068
4068
4068
4068
4068
4068
4068
4068
4068
4068
4068
4068
4068
4068
4068
4068
4068
4068
4068
4068
4068
4068
4068
4068
4068
4068
4068
4068
4068
4068
4068
4068
4068
4068
4068
4068
4068
4068
4068
4068
4068
4068
4068
4068
4068
4068
4068
4068
4068
4068
4068
4068
4068
4068
4068
4068
4068
4068
4068
4068
4068
4068
4068
4068
4068
4068
4068
4068
4068
4068
4068
4068
4068
4068
4068
4068
4068
4068
4068
4068
4068
4068
4068
4068
4068
4068
4068
4068
4068
4068
4068
4068
4068
4068
4068
4068
4068
4068
4068
4068
4068
4068
4068
4068
4068
4068
4068
4068
4068
4068
4068
4068
4068
4068
4068
4068
4068
4068
4068
4068
4068
4068
4068
4068
4068
4068
4068
4068
4068
4068
4068
4068
4068
4068
4068
4068
4068
4068
4068
4068
4068
4068
4068
4068
4068
4068
4068
4068
4068
4068
4068
4068
4068
4068
4068
4068
4068
4068
4068
4068
4068
4068
4068
4068
4068
4068
4068
4068
4068
4068
4068
4068
4068
4068
4068
4068
4068
4068
4068
4068
4068
4068
4068
4068
4068
4068
4068
4068
4068
4068
4068
4068
4068
4068
4068
4068
4068
4068
4068
4068
4068
4068
4068
4068
4068
4068
4068
4068
4068
4068
4068
4068
4068
4068
4068
4068
4068
4068
4068
4068
4068
4068
4068
4068
4068
4068
4068
4068
4068
4068
4068
4068
4068
4068
4068
4068
4068
4068
4068
4068
4068
4068
4068
4068
4068
4068
4068
4068
4068
4068
4068
4068
4068
4068
4068
4068
4068
4068
4068
4068
4068
4068
4068
4068
4068
4068
4068
4068
4068
4068
4068
4068
4068
4068
4068
4068
4068
4068
4068
4068
4068
4068
4068
4068
4068
4068
4068
4068
4068
4068
4068
4068
4068
4068
4068
4068
4068
4068
4068
4068
4068
4068
4068
4068
4068
4068
4068
4068
4068
4068
4068
4068
4068
4068
4068
4068
4068
4068
4068
4068
4068
4068
4068
4068
4068
4068
4068
4068
4068
4068
4068
4068
4068
4068
4068
4068
4068
4068
4068
4068
4068
4068
4068
4068
4068
4068
4068
4068
4068
4068
4068
4068
4068
4068
4068
4068
4068
4068
4068
4068
4068
4068
4068
4068
4068
4068
4068
4068
4068
4068
